p cnf 183 336               
-3 -4 41 0
-18 24 0
-19 24 0
-6 -5 -20 0
-8 -7 -22 0
3 -25 0
15 -25 0
-15 -26 0
-3 -26 0
25 26 -27 0
3 -28 0
16 -28 0
-16 -29 0
-3 -29 0
28 29 -30 0
4 -31 0
17 -31 0
-17 -32 0
-4 -32 0
31 32 -33 0
4 -34 0
18 -34 0
-18 -35 0
-4 -35 0
34 35 -36 0
4 -37 0
19 -37 0
-19 -38 0
-4 -38 0
37 38 -39 0
3 4 -40 0
-11 9 -42 0
42 -44 0
-9 11 -43 0
43 -44 0
-12 9 -45 0
45 -47 0
-9 12 -46 0
46 -47 0
-13 9 -48 0
48 -50 0
-9 13 -49 0
49 -50 0
-14 9 -51 0
51 -53 0
-9 14 -52 0
52 -53 0
6 -60 0
19 -60 0
-6 -19 60 0
60 61 0
5 -59 0
19 -59 0
-5 -19 59 0
59 61 0
-60 -59 -61 0
61 -63 0
-59 62 0
-60 62 0
59 60 -62 0
62 -63 0
-61 -62 63 0
63 64 0
6 -55 0
18 -55 0
-6 -18 55 0
55 56 0
5 -54 0
18 -54 0
-5 -18 54 0
54 56 0
-55 -54 -56 0
56 -58 0
-54 57 0
-55 57 0
54 55 -57 0
57 -58 0
-56 -57 58 0
58 64 0
-63 -58 -64 0
-64 -70 0
-55 65 0
-60 65 0
55 60 -65 0
-65 -69 0
54 -66 0
59 -66 0
-54 -59 66 0
66 -69 0
69 -70 0
-5 70 -72 0
72 -74 0
-64 -71 0
-65 68 0
55 -67 0
60 -67 0
-55 -60 67 0
-67 68 0
65 67 -68 0
68 -71 0
64 -68 71 0
-6 71 -73 0
73 -74 0
74 -76 0
-71 6 -75 0
75 -76 0
-4 76 -77 0
-16 -5 -78 0
78 -80 0
-6 16 -79 0
79 -80 0
80 -84 0
5 16 -81 0
81 -83 0
-16 6 -82 0
82 -83 0
83 -84 0
-3 84 -85 0
57 -90 0
-54 -86 0
55 -86 0
54 -55 86 0
-86 -89 0
-59 -87 0
60 -87 0
59 -60 87 0
-87 -88 0
62 -88 0
87 -62 88 0
88 -89 0
86 -88 89 0
89 -90 0
-57 -89 90 0
-9 90 -91 0
91 -93 0
-90 9 -92 0
92 -93 0
-4 93 -94 0
-3 9 -95 0
-10 -4 -96 0
-3 10 -97 0
-64 -112 0
-54 104 0
-59 104 0
54 59 -104 0
-104 -106 0
67 -106 0
104 -67 106 0
106 -112 0
64 -106 112 0
-112 -113 0
8 -102 0
19 -102 0
-8 -19 102 0
-102 -110 0
7 -101 0
19 -101 0
-7 -19 101 0
101 -110 0
102 -101 110 0
-110 -113 0
8 -99 0
18 -99 0
-8 -18 99 0
-99 -109 0
7 -98 0
18 -98 0
-7 -18 98 0
98 -109 0
99 -98 109 0
-109 -113 0
112 110 109 113 0
-113 -7 -114 0
114 -116 0
58 -108 0
63 -108 0
-98 -100 0
99 -100 0
98 -99 100 0
100 -108 0
-101 -103 0
102 -103 0
101 -102 103 0
103 -108 0
-106 -107 0
-66 105 0
-104 105 0
66 104 -105 0
105 -107 0
106 -105 107 0
107 -108 0
-58 -63 -100 -103 -107 108 0
-8 108 -115 0
115 -116 0
116 -120 0
7 113 -117 0
117 -119 0
-108 8 -118 0
118 -119 0
119 -120 0
-4 120 -121 0
-7 -122 0
8 -122 0
-3 122 -123 0
-11 90 -124 0
124 -126 0
-90 11 -125 0
125 -126 0
-4 126 -127 0
-3 11 -128 0
-12 90 -129 0
129 -131 0
-90 12 -130 0
130 -131 0
-4 131 -132 0
-3 12 -133 0
-13 90 -134 0
134 -136 0
-90 13 -135 0
135 -136 0
-4 136 -137 0
-3 13 -138 0
-14 90 -139 0
139 -141 0
-90 14 -140 0
140 -141 0
-4 141 -142 0
-3 14 -143 0
17 -145 0
1 -144 0
18 -144 0
-1 -18 144 0
144 -145 0
-17 -144 145 0
145 -147 0
2 -146 0
19 -146 0
-2 -19 146 0
146 -147 0
-145 -146 147 0
-6 -147 149 0
-149 -150 0
5 -148 0
147 -148 0
148 -150 0
-1 -5 157 0
-157 -159 0
1 -158 0
6 -158 0
158 -159 0
-1 -8 155 0
-155 -156 0
1 -154 0
7 -154 0
154 -156 0
159 -163 0
1 -160 0
11 -160 0
160 -162 0
1 -161 0
10 -161 0
161 -162 0
162 -163 0
156 163 -164 0
-2 -5 168 0
-168 -170 0
2 -169 0
6 -169 0
169 -170 0
-2 -8 166 0
-166 -167 0
2 -165 0
7 -165 0
165 -167 0
170 -174 0
2 -171 0
12 -171 0
171 -173 0
2 -172 0
10 -172 0
172 -173 0
173 -174 0
167 174 -175 0
-7 -147 176 0
-176 -178 0
8 -177 0
147 -177 0
177 -178 0
161 -180 0
1 -179 0
13 -179 0
179 -180 0
172 -182 0
2 -181 0
14 -181 0
181 -182 0
-41 0
-24 0
1 0
2 0
20 0
22 0
27 0
30 0
33 0
36 0
39 0
40 0
44 0
47 0
50 0
53 0
77 0
85 0
94 0
95 0
96 0
97 0
121 0
123 0
127 0
128 0
132 0
133 0
137 0
138 0
142 0
143 0
150 0
159 0
164 0
170 0
175 0
178 0
180 0
182 0
